0 442
1 418
2 416
4 400
6 388
8 368
11 360
14 348
21 334
22 326
24 322
31 316
32 310
37 294
39 266
41 262
48 258
67 254
79 250
84 248
91 244
106 236
114 224
123 220
130 214
162 202
179 198
211 196
228 188
319 186
326 184
377 180
438 176
528 172
715 166
826 164
833 160
985 158
